
Gurobi 10.0.1 (linux64) logging started Sun Nov 26 16:04:22 2023

Set parameter LogFile to value "ArtificialInstance/ExperimentV2/S3T5K2/AdRo/gurobiDoRo59.txt"
Gurobi Optimizer version 10.0.1 build v10.0.1rc0 (linux64)

CPU model: AMD EPYC 7H12 64-Core Processor, instruction set [SSE2|AVX|AVX2]
Thread count: 128 physical cores, 128 logical processors, using up to 32 threads

Academic license 656792 - for non-commercial use only - registered to b.___@student.vu.nl
Optimize a model with 11299 rows, 10573 columns and 41167 nonzeros
Model fingerprint: 0x4027c939
Variable types: 1 continuous, 10572 integer (10572 binary)
Coefficient statistics:
  Matrix range     [1e+00, 4e+01]
  Objective range  [1e+00, 2e+01]
  Bounds range     [1e+00, 1e+00]
  RHS range        [1e+00, 1e+00]
Presolve removed 4743 rows and 4397 columns
Presolve time: 0.15s
Presolved: 6556 rows, 6176 columns, 24153 nonzeros
Variable types: 1 continuous, 6175 integer (6175 binary)
Found heuristic solution: objective 104.1601245

Root relaxation: objective 1.010963e+02, 2231 iterations, 0.10 seconds (0.07 work units)

    Nodes    |    Current Node    |     Objective Bounds      |     Work
 Expl Unexpl |  Obj  Depth IntInf | Incumbent    BestBd   Gap | It/Node Time

H    0     0                     101.0962732   65.46577  35.2%     -    0s
     0     0          -    0       101.09627  101.09627  0.00%     -    0s

Explored 1 nodes (3496 simplex iterations) in 0.33 seconds (0.24 work units)
Thread count was 32 (of 128 available processors)

Solution count 2: 101.096 104.16 

Optimal solution found (tolerance 1.00e-04)
Best objective 1.010962732399e+02, best bound 1.010962732399e+02, gap 0.0000%
